(set-logic QF_S)
(declare-fun var0 () String)
(declare-fun var1 () String)
(declare-fun var2 () String)
(declare-fun var3 () String)
(declare-fun var4 () String)
(declare-fun var5 () String)
(declare-fun var6 () String)
(declare-fun var7 () String)
(declare-fun var8 () String)
(declare-fun var9 () String)
(declare-fun var10 () String)
(declare-fun var11 () String)
(declare-fun var12 () String)
(declare-fun var13 () String)
(declare-fun var14 () String)
(declare-fun var15 () String)
(declare-fun var16 () String)
(declare-fun var17 () String)
(declare-fun var18 () String)
(declare-fun var19 () String)
(declare-fun var20 () String)
(declare-fun var21 () String)
(declare-fun var22 () String)
(declare-fun var23 () String)
(declare-fun var24 () String)
(declare-fun var25 () String)
(declare-fun var26 () String)
(declare-fun var27 () String)
(declare-fun var28 () String)
(declare-fun var29 () String)
(declare-fun var30 () String)
(declare-fun var31 () String)
(declare-fun var32 () String)
(declare-fun var33 () String)
(declare-fun var34 () String)
(declare-fun var35 () String)
(declare-fun var36 () String)
(declare-fun var37 () String)
(declare-fun var38 () String)
(declare-fun var39 () String)
(declare-fun var40 () String)
(declare-fun var41 () String)
(declare-fun var42 () String)
(declare-fun var43 () String)
(declare-fun var44 () String)
(declare-fun var45 () String)
(declare-fun var46 () String)
(declare-fun var47 () String)
(declare-fun var48 () String)
(declare-fun var49 () String)
(declare-fun var50 () String)
(declare-fun var51 () String)
(declare-fun var52 () String)
(declare-fun var53 () String)
(declare-fun var54 () String)
(declare-fun var55 () String)
(declare-fun var56 () String)
(declare-fun var57 () String)
(declare-fun var58 () String)
(declare-fun var59 () String)
(declare-fun var60 () String)
(assert (= var0 (str.++ var1 var2)))
(assert (= var2 (str.++ var3 var4)))
(assert (= var4 (str.++ var5 var6)))
(assert (= var6 (str.++ var7 var8)))
(assert (= var8 (str.++ var9 var10)))
(assert (= var10 (str.++ var11 var12)))
(assert (= var12 (str.++ var13 var14)))
(assert (= var14 (str.++ var15 var16)))
(assert (= var16 (str.++ var17 var18)))
(assert (= var18 (str.++ var19 var20)))
(assert (= var20 (str.++ var21 var22)))
(assert (= var22 (str.++ var23 var24)))
(assert (= var24 (str.++ var25 var26)))
(assert (= var26 (str.++ var27 var28)))
(assert (= var28 (str.++ var29 var30)))
(assert (= var30 (str.++ var31 var32)))
(assert (= var32 (str.++ var33 var34)))
(assert (= var34 (str.++ var35 var36)))
(assert (= var36 (str.++ var37 var38)))
(assert (= var38 (str.++ var39 var40)))
(assert (= var40 (str.++ var41 var42)))
(assert (= var42 (str.++ var43 var44)))
(assert (= var44 (str.++ var45 var46)))
(assert (= var46 (str.++ var47 var48)))
(assert (= var48 (str.++ var49 var50)))
(assert (= var50 (str.++ var51 var52)))
(assert (= var52 (str.++ var53 var54)))
(assert (= var54 (str.++ var55 var56)))
(assert (= var56 (str.++ var57 var58)))
(assert (= var58 (str.++ var59 var60)))
(assert (= var0 "solution"))
(assert (= "F" (str.at var45 108)))
(assert (= "I" (str.at var2 90)))
(assert (= "t" (str.at var0 167)))
(assert (= "{" (str.at var45 251)))
(assert (= "@" (str.at var14 361)))
(assert (= "$" (str.at var41 312)))
(assert (= "5" (str.at var45 798)))
(assert (= "}" (str.at var3 56)))
(assert (= "k" (str.at var32 631)))
(assert (= "H" (str.at var18 709)))
(assert (= "~" (str.at var27 853)))
(assert (= "-" (str.at var27 128)))
(assert (= "~" (str.at var35 322)))
(assert (= "9" (str.at var13 424)))
(assert (= "D" (str.at var18 396)))
(assert (= "#" (str.at var14 517)))
(assert (= "." (str.at var31 521)))
(assert (= "/" (str.at var0 658)))
(assert (= "e" (str.at var17 776)))
(assert (= "J" (str.at var24 622)))
(assert (= "y" (str.at var17 97)))
(assert (= "m" (str.at var15 707)))
(assert (= "F" (str.at var52 241)))
(assert (= "d" (str.at var21 472)))
(assert (= "y" (str.at var24 653)))
(assert (= "$" (str.at var4 101)))
(assert (= "." (str.at var49 966)))
(assert (= """" (str.at var58 531)))
(assert (= "D" (str.at var7 13)))
(assert (= "9" (str.at var23 850)))
(assert (= "#" (str.at var23 682)))
(assert (= "'" (str.at var46 325)))
(assert (= "Z" (str.at var45 549)))
(assert (= "j" (str.at var47 765)))
(assert (= "9" (str.at var57 167)))
(assert (= "{" (str.at var45 170)))
(assert (= "D" (str.at var55 753)))
(assert (= "F" (str.at var11 874)))
(assert (= "G" (str.at var45 296)))
(assert (= "5" (str.at var36 64)))
(assert (= "W" (str.at var10 296)))
(assert (= "`" (str.at var4 316)))
(assert (= "t" (str.at var1 904)))
(assert (= "<" (str.at var57 28)))
(assert (= "Y" (str.at var30 593)))
(assert (= "^" (str.at var59 829)))
(assert (= "*" (str.at var9 264)))
(assert (= "G" (str.at var52 951)))
(assert (= "9" (str.at var48 62)))
(assert (= "7" (str.at var60 220)))
(assert (= "=" (str.at var57 756)))
(assert (= "n" (str.at var40 725)))
(assert (= "{" (str.at var56 373)))
(assert (= "M" (str.at var59 227)))
(assert (= "y" (str.at var25 42)))
(assert (= "$" (str.at var1 302)))
(assert (= "2" (str.at var57 897)))
(assert (= "y" (str.at var38 698)))
(assert (= "D" (str.at var18 223)))
(assert (= """" (str.at var31 40)))
(assert (= "Y" (str.at var28 618)))
(assert (= "^" (str.at var22 141)))
(assert (= "n" (str.at var29 708)))
(assert (= "z" (str.at var8 778)))
(assert (= "P" (str.at var20 374)))
(assert (= "<" (str.at var43 423)))
(assert (= "l" (str.at var31 641)))
(assert (= "_" (str.at var60 116)))
(assert (= "R" (str.at var13 765)))
(assert (= "r" (str.at var27 832)))
(assert (= "k" (str.at var22 883)))
(assert (= "^" (str.at var18 841)))
(assert (= "." (str.at var20 463)))
(assert (= ";" (str.at var27 594)))
(assert (= "w" (str.at var40 273)))
(assert (= ";" (str.at var12 732)))
(assert (= "<" (str.at var30 850)))
(assert (= "Y" (str.at var0 20)))
(assert (= "X" (str.at var30 205)))
(assert (= "}" (str.at var43 869)))
(assert (= "8" (str.at var56 415)))
(assert (= "*" (str.at var14 216)))
(assert (= "]" (str.at var8 199)))
(assert (= "9" (str.at var20 159)))
(assert (= "o" (str.at var19 36)))
(assert (= "b" (str.at var11 908)))
(assert (= "0" (str.at var47 109)))
(assert (= "c" (str.at var22 74)))
(assert (= "-" (str.at var22 662)))
(assert (= "V" (str.at var14 528)))
(assert (= "3" (str.at var12 664)))
(assert (= "$" (str.at var52 578)))
(assert (= "B" (str.at var3 302)))
(assert (= ">" (str.at var54 95)))
(assert (= "0" (str.at var17 764)))
(assert (= "_" (str.at var28 714)))
(assert (= "S" (str.at var59 718)))
(assert (= "K" (str.at var8 102)))
(assert (= "N" (str.at var14 167)))
(assert (= "$" (str.at var5 681)))
(assert (= "3" (str.at var10 800)))
(assert (= "~" (str.at var29 443)))
(assert (= "e" (str.at var20 913)))
(assert (= "(" (str.at var7 270)))
(assert (= "8" (str.at var24 812)))
(assert (= "\\" (str.at var12 457)))
(assert (= "$" (str.at var4 436)))
(assert (= "N" (str.at var39 70)))
(assert (= ":" (str.at var4 376)))
(assert (= "n" (str.at var51 625)))
(assert (= "|" (str.at var18 750)))
(assert (= "N" (str.at var14 760)))
(assert (= "-" (str.at var37 525)))
(assert (= "{" (str.at var52 689)))
(assert (= "V" (str.at var41 360)))
(assert (= "J" (str.at var5 526)))
(assert (= ">" (str.at var41 442)))
(assert (= "p" (str.at var3 201)))
(assert (= "]" (str.at var20 408)))
(assert (= "[" (str.at var9 688)))
(assert (= "7" (str.at var26 140)))
(check-sat)
(get-model)